14067
1 0 1 1 1 1 1 0 0 1 0 0 1 0 1 1 0 0 0 0 1 1 1 0 0 1 0 1 1 0 
20 25 20 2 20 5 2 9 14 0 22 20 28 20 3 14 14 0 5 0 2 0 5 3 5 20 2 5 5 9 5 25 6 25 20 20 5 15 0 14 0 14 15 28 5 14 0 20 27 28 5 14 14 5 20 20 2 27 0 14 0 5 20 27 0 25 9 0 5 9 20 6 5 0 9 20 9 20 14 9 20 0 20 0 2 0 2 4 20 5 2 9 0 0 0 5 2 2 21 20 28 0 14 25 2 25 0 0 14 28 14 14 2 0 25 21 5 15 5 5 5 28 25 20 20 0 5 9 0 12 0 27 5 5 28 14 4 5 20 0 0 28 20 14 20 25 25 5 2 5 
